nK = 1396;
nT = 6;
nI = 14;
L = 29;
TT = 302;
np = 1;
nc = 3;
b = [56, 34, 55, 50, 59, 59, 27, 48, 61, 44, 53, 68, 64, 50];
d = [127, 104, 98, 116, 100, 100, 143, 130, 140, 81, 137, 113, 108, 94];
m = [2.5, 1.2, 2.2, 2.5, 2.2, 1.5, 1.9, 2, 2.4, 1.7, 1.4, 1.5, 1.7, 1.8];
pt = [0.24, 0.21, 0.24, 0.31, 0.35, 0.28];
st = [13.44, 8.82, 13.44, 17.36, 14, 11.76];
arc = {<1, 0, 1, 1, 0, 0, 0, [1, 1, 1, 1, 1, 1]>, <2, 1, 2, 1, 0, 0, 0, [1, 1, 1, 1, 1, 1]>, <3, 2, 3, 1, 0, 0, 0, [1, 1, 1, 1, 1, 1]>, <4, 3, 4, 1, 0, 0, 0, [1, 1, 1, 1, 1, 1]>, <5, 4, 5, 1, 0, 0, 0, [1, 1, 1, 1, 1, 1]>, <6, 5, 6, 1, 0, 0, 0, [1, 1, 1, 1, 1, 1]>, <7, 6, 7, 1, 0, 0, 0, [1, 1, 1, 1, 1, 1]>, <8, 7, 8, 1, 0, 0, 0, [1, 1, 1, 1, 1, 1]>, <9, 8, 9, 1, 0, 0, 0, [1, 1, 1, 1, 1, 1]>, <10, 9, 10, 1, 0, 0, 0, [1, 1, 1, 1, 1, 1]>, <11, 10, 11, 1, 0, 0, 0, [1, 1, 1, 1, 1, 1]>, <12, 11, 12, 1, 0, 0, 0, [1, 1, 1, 1, 1, 1]>, <13, 12, 13, 1, 0, 0, 0, [1, 1, 1, 1, 1, 1]>, <14, 13, 14, 1, 0, 0, 0, [1, 1, 1, 1, 1, 1]>, <15, 14, 15, 1, 0, 0, 0, [1, 1, 1, 1, 1, 1]>, <16, 15, 16, 1, 0, 0, 0, [1, 1, 1, 1, 1, 1]>, <17, 16, 17, 1, 0, 0, 0, [1, 1, 1, 1, 1, 1]>, <18, 17, 18, 1, 0, 0, 0, [1, 1, 1, 1, 1, 1]>, <19, 18, 19, 1, 0, 0, 0, [1, 1, 1, 1, 1, 1]>, <20, 19, 20, 1, 0, 0, 0, [1, 1, 1, 1, 1, 1]>, <21, 20, 21, 1, 0, 0, 0, [1, 1, 1, 1, 1, 1]>, <22, 21, 22, 1, 0, 0, 0, [1, 1, 1, 1, 1, 1]>, <23, 22, 23, 1, 0, 0, 0, [1, 1, 1, 1, 1, 1]>, <24, 23, 24, 1, 0, 0, 0, [1, 1, 1, 1, 1, 1]>, <25, 24, 25, 1, 0, 0, 0, [1, 1, 1, 1, 1, 1]>, <26, 25, 26, 1, 0, 0, 0, [1, 1, 1, 1, 1, 1]>, <27, 26, 27, 1, 0, 0, 0, [1, 1, 1, 1, 1, 1]>, <28, 27, 28, 1, 0, 0, 0, [1, 1, 1, 1, 1, 1]>, <29, 28, 29, 1, 0, 0, 0, [1, 1, 1, 1, 1, 1]>, <30, 0, 12, 12, 1, 0, 0, [1, 0, 0, 1, 1, 1]>, <31, 1, 13, 12, 1, 0, 0, [1, 0, 0, 1, 1, 1]>, <32, 2, 14, 12, 1, 0, 0, [1, 0, 0, 1, 1, 1]>, <33, 3, 15, 12, 1, 0, 0, [1, 0, 0, 1, 1, 1]>, <34, 4, 16, 12, 1, 0, 0, [1, 0, 0, 1, 1, 1]>, <35, 5, 17, 12, 1, 0, 0, [1, 0, 0, 1, 1, 1]>, <36, 8, 20, 12, 1, 0, 0, [1, 0, 0, 1, 1, 1]>, <37, 9, 21, 12, 1, 0, 0, [1, 0, 0, 1, 1, 1]>, <38, 10, 22, 12, 1, 0, 0, [1, 0, 0, 1, 1, 1]>, <39, 11, 23, 12, 1, 0, 0, [1, 0, 0, 1, 1, 1]>, <40, 12, 24, 12, 1, 0, 0, [1, 0, 0, 1, 1, 1]>, <41, 13, 25, 12, 1, 0, 0, [1, 0, 0, 1, 1, 1]>, <42, 14, 26, 12, 1, 0, 0, [1, 0, 0, 1, 1, 1]>, <43, 15, 27, 12, 1, 0, 0, [1, 0, 0, 1, 1, 1]>, <44, 16, 28, 12, 1, 0, 0, [1, 0, 0, 1, 1, 1]>, <45, 17, 29, 12, 1, 0, 0, [1, 0, 0, 1, 1, 1]>, <46, 1, 12, 11, 2, 0, 0, [1, 1, 1, 1, 0, 0]>, <47, 2, 13, 11, 2, 0, 0, [1, 1, 1, 1, 0, 0]>, <48, 3, 14, 11, 2, 0, 0, [1, 1, 1, 1, 0, 0]>, <49, 4, 15, 11, 2, 0, 0, [1, 1, 1, 1, 0, 0]>, <50, 5, 16, 11, 2, 0, 0, [1, 1, 1, 1, 0, 0]>, <51, 9, 20, 11, 2, 0, 0, [1, 1, 1, 1, 0, 0]>, <52, 10, 21, 11, 2, 0, 0, [1, 1, 1, 1, 0, 0]>, <53, 11, 22, 11, 2, 0, 0, [1, 1, 1, 1, 0, 0]>, <54, 12, 23, 11, 2, 0, 0, [1, 1, 1, 1, 0, 0]>, <55, 13, 24, 11, 2, 0, 0, [1, 1, 1, 1, 0, 0]>, <56, 14, 25, 11, 2, 0, 0, [1, 1, 1, 1, 0, 0]>, <57, 15, 26, 11, 2, 0, 0, [1, 1, 1, 1, 0, 0]>, <58, 16, 27, 11, 2, 0, 0, [1, 1, 1, 1, 0, 0]>, <59, 17, 28, 11, 2, 0, 0, [1, 1, 1, 1, 0, 0]>, <60, 18, 29, 11, 2, 0, 0, [1, 1, 1, 1, 0, 0]>, <61, 0, 14, 14, 3, 0, 0, [0, 0, 1, 1, 1, 1]>, <62, 1, 15, 14, 3, 0, 0, [0, 0, 1, 1, 1, 1]>, <63, 2, 16, 14, 3, 0, 0, [0, 0, 1, 1, 1, 1]>, <64, 3, 17, 14, 3, 0, 0, [0, 0, 1, 1, 1, 1]>, <65, 4, 18, 14, 3, 0, 0, [0, 0, 1, 1, 1, 1]>, <66, 5, 19, 14, 3, 0, 0, [0, 0, 1, 1, 1, 1]>, <67, 6, 20, 14, 3, 0, 0, [0, 0, 1, 1, 1, 1]>, <68, 7, 21, 14, 3, 0, 0, [0, 0, 1, 1, 1, 1]>, <69, 8, 22, 14, 3, 0, 0, [0, 0, 1, 1, 1, 1]>, <70, 9, 23, 14, 3, 0, 0, [0, 0, 1, 1, 1, 1]>, <71, 10, 24, 14, 3, 0, 0, [0, 0, 1, 1, 1, 1]>, <72, 11, 25, 14, 3, 0, 0, [0, 0, 1, 1, 1, 1]>, <73, 12, 26, 14, 3, 0, 0, [0, 0, 1, 1, 1, 1]>, <74, 13, 27, 14, 3, 0, 0, [0, 0, 1, 1, 1, 1]>, <75, 14, 28, 14, 3, 0, 0, [0, 0, 1, 1, 1, 1]>, <76, 15, 29, 14, 3, 0, 0, [0, 0, 1, 1, 1, 1]>, <77, 0, 13, 13, 4, 0, 0, [1, 1, 0, 0, 1, 1]>, <78, 1, 14, 13, 4, 0, 0, [1, 1, 0, 0, 1, 1]>, <79, 2, 15, 13, 4, 0, 0, [1, 1, 0, 0, 1, 1]>, <80, 3, 16, 13, 4, 0, 0, [1, 1, 0, 0, 1, 1]>, <81, 4, 17, 13, 4, 0, 0, [1, 1, 0, 0, 1, 1]>, <82, 5, 18, 13, 4, 0, 0, [1, 1, 0, 0, 1, 1]>, <83, 7, 20, 13, 4, 0, 0, [1, 1, 0, 0, 1, 1]>, <84, 8, 21, 13, 4, 0, 0, [1, 1, 0, 0, 1, 1]>, <85, 9, 22, 13, 4, 0, 0, [1, 1, 0, 0, 1, 1]>, <86, 10, 23, 13, 4, 0, 0, [1, 1, 0, 0, 1, 1]>, <87, 11, 24, 13, 4, 0, 0, [1, 1, 0, 0, 1, 1]>, <88, 12, 25, 13, 4, 0, 0, [1, 1, 0, 0, 1, 1]>, <89, 13, 26, 13, 4, 0, 0, [1, 1, 0, 0, 1, 1]>, <90, 14, 27, 13, 4, 0, 0, [1, 1, 0, 0, 1, 1]>, <91, 15, 28, 13, 4, 0, 0, [1, 1, 0, 0, 1, 1]>, <92, 16, 29, 13, 4, 0, 0, [1, 1, 0, 0, 1, 1]>, <93, 0, 12, 12, 5, 0, 1, [0, 1, 1, 1, 1, 0]>, <94, 1, 13, 12, 5, 0, 1, [0, 1, 1, 1, 1, 0]>, <95, 2, 14, 12, 5, 0, 1, [0, 1, 1, 1, 1, 0]>, <96, 3, 15, 12, 5, 0, 1, [0, 1, 1, 1, 1, 0]>, <97, 4, 16, 12, 5, 0, 1, [0, 1, 1, 1, 1, 0]>, <98, 5, 17, 12, 5, 0, 1, [0, 1, 1, 1, 1, 0]>, <99, 8, 20, 12, 5, 0, 1, [0, 1, 1, 1, 1, 0]>, <100, 9, 21, 12, 5, 0, 1, [0, 1, 1, 1, 1, 0]>, <101, 10, 22, 12, 5, 0, 1, [0, 1, 1, 1, 1, 0]>, <102, 11, 23, 12, 5, 0, 1, [0, 1, 1, 1, 1, 0]>, <103, 12, 24, 12, 5, 0, 1, [0, 1, 1, 1, 1, 0]>, <104, 13, 25, 12, 5, 0, 1, [0, 1, 1, 1, 1, 0]>, <105, 14, 26, 12, 5, 0, 1, [0, 1, 1, 1, 1, 0]>, <106, 15, 27, 12, 5, 0, 1, [0, 1, 1, 1, 1, 0]>, <107, 16, 28, 12, 5, 0, 1, [0, 1, 1, 1, 1, 0]>, <108, 17, 29, 12, 5, 0, 1, [0, 1, 1, 1, 1, 0]>, <109, 2, 12, 10, 6, 1, 0, [1, 0, 0, 1, 1, 1]>, <110, 3, 13, 10, 6, 1, 0, [1, 0, 0, 1, 1, 1]>, <111, 4, 14, 10, 6, 1, 0, [1, 0, 0, 1, 1, 1]>, <112, 5, 15, 10, 6, 1, 0, [1, 0, 0, 1, 1, 1]>, <113, 10, 20, 10, 6, 1, 0, [1, 0, 0, 1, 1, 1]>, <114, 11, 21, 10, 6, 1, 0, [1, 0, 0, 1, 1, 1]>, <115, 12, 22, 10, 6, 1, 0, [1, 0, 0, 1, 1, 1]>, <116, 14, 24, 10, 6, 1, 0, [1, 0, 0, 1, 1, 1]>, <117, 15, 25, 10, 6, 1, 0, [1, 0, 0, 1, 1, 1]>, <118, 16, 26, 10, 6, 1, 0, [1, 0, 0, 1, 1, 1]>, <119, 17, 27, 10, 6, 1, 0, [1, 0, 0, 1, 1, 1]>, <120, 18, 28, 10, 6, 1, 0, [1, 0, 0, 1, 1, 1]>, <121, 19, 29, 10, 6, 1, 0, [1, 0, 0, 1, 1, 1]>, <122, 0, 14, 14, 7, 0, 1, [1, 1, 1, 0, 0, 1]>, <123, 1, 15, 14, 7, 0, 1, [1, 1, 1, 0, 0, 1]>, <124, 2, 16, 14, 7, 0, 1, [1, 1, 1, 0, 0, 1]>, <125, 3, 17, 14, 7, 0, 1, [1, 1, 1, 0, 0, 1]>, <126, 4, 18, 14, 7, 0, 1, [1, 1, 1, 0, 0, 1]>, <127, 5, 19, 14, 7, 0, 1, [1, 1, 1, 0, 0, 1]>, <128, 6, 20, 14, 7, 0, 1, [1, 1, 1, 0, 0, 1]>, <129, 7, 21, 14, 7, 0, 1, [1, 1, 1, 0, 0, 1]>, <130, 8, 22, 14, 7, 0, 1, [1, 1, 1, 0, 0, 1]>, <131, 9, 23, 14, 7, 0, 1, [1, 1, 1, 0, 0, 1]>, <132, 10, 24, 14, 7, 0, 1, [1, 1, 1, 0, 0, 1]>, <133, 11, 25, 14, 7, 0, 1, [1, 1, 1, 0, 0, 1]>, <134, 12, 26, 14, 7, 0, 1, [1, 1, 1, 0, 0, 1]>, <135, 13, 27, 14, 7, 0, 1, [1, 1, 1, 0, 0, 1]>, <136, 14, 28, 14, 7, 0, 1, [1, 1, 1, 0, 0, 1]>, <137, 15, 29, 14, 7, 0, 1, [1, 1, 1, 0, 0, 1]>, <138, 1, 12, 11, 8, 0, 0, [0, 1, 1, 1, 1, 0]>, <139, 2, 13, 11, 8, 0, 0, [0, 1, 1, 1, 1, 0]>, <140, 3, 14, 11, 8, 0, 0, [0, 1, 1, 1, 1, 0]>, <141, 4, 15, 11, 8, 0, 0, [0, 1, 1, 1, 1, 0]>, <142, 5, 16, 11, 8, 0, 0, [0, 1, 1, 1, 1, 0]>, <143, 9, 20, 11, 8, 0, 0, [0, 1, 1, 1, 1, 0]>, <144, 10, 21, 11, 8, 0, 0, [0, 1, 1, 1, 1, 0]>, <145, 11, 22, 11, 8, 0, 0, [0, 1, 1, 1, 1, 0]>, <146, 12, 23, 11, 8, 0, 0, [0, 1, 1, 1, 1, 0]>, <147, 13, 24, 11, 8, 0, 0, [0, 1, 1, 1, 1, 0]>, <148, 14, 25, 11, 8, 0, 0, [0, 1, 1, 1, 1, 0]>, <149, 15, 26, 11, 8, 0, 0, [0, 1, 1, 1, 1, 0]>, <150, 16, 27, 11, 8, 0, 0, [0, 1, 1, 1, 1, 0]>, <151, 17, 28, 11, 8, 0, 0, [0, 1, 1, 1, 1, 0]>, <152, 18, 29, 11, 8, 0, 0, [0, 1, 1, 1, 1, 0]>, <153, 0, 12, 12, 9, 0, 0, [1, 1, 1, 0, 0, 1]>, <154, 1, 13, 12, 9, 0, 0, [1, 1, 1, 0, 0, 1]>, <155, 2, 14, 12, 9, 0, 0, [1, 1, 1, 0, 0, 1]>, <156, 3, 15, 12, 9, 0, 0, [1, 1, 1, 0, 0, 1]>, <157, 4, 16, 12, 9, 0, 0, [1, 1, 1, 0, 0, 1]>, <158, 5, 17, 12, 9, 0, 0, [1, 1, 1, 0, 0, 1]>, <159, 8, 20, 12, 9, 0, 0, [1, 1, 1, 0, 0, 1]>, <160, 9, 21, 12, 9, 0, 0, [1, 1, 1, 0, 0, 1]>, <161, 10, 22, 12, 9, 0, 0, [1, 1, 1, 0, 0, 1]>, <162, 11, 23, 12, 9, 0, 0, [1, 1, 1, 0, 0, 1]>, <163, 12, 24, 12, 9, 0, 0, [1, 1, 1, 0, 0, 1]>, <164, 13, 25, 12, 9, 0, 0, [1, 1, 1, 0, 0, 1]>, <165, 14, 26, 12, 9, 0, 0, [1, 1, 1, 0, 0, 1]>, <166, 15, 27, 12, 9, 0, 0, [1, 1, 1, 0, 0, 1]>, <167, 16, 28, 12, 9, 0, 0, [1, 1, 1, 0, 0, 1]>, <168, 17, 29, 12, 9, 0, 0, [1, 1, 1, 0, 0, 1]>, <169, 1, 12, 11, 10, 0, 1, [1, 1, 1, 0, 0, 1]>, <170, 2, 13, 11, 10, 0, 1, [1, 1, 1, 0, 0, 1]>, <171, 3, 14, 11, 10, 0, 1, [1, 1, 1, 0, 0, 1]>, <172, 4, 15, 11, 10, 0, 1, [1, 1, 1, 0, 0, 1]>, <173, 5, 16, 11, 10, 0, 1, [1, 1, 1, 0, 0, 1]>, <174, 9, 20, 11, 10, 0, 1, [1, 1, 1, 0, 0, 1]>, <175, 10, 21, 11, 10, 0, 1, [1, 1, 1, 0, 0, 1]>, <176, 11, 22, 11, 10, 0, 1, [1, 1, 1, 0, 0, 1]>, <177, 12, 23, 11, 10, 0, 1, [1, 1, 1, 0, 0, 1]>, <178, 13, 24, 11, 10, 0, 1, [1, 1, 1, 0, 0, 1]>, <179, 14, 25, 11, 10, 0, 1, [1, 1, 1, 0, 0, 1]>, <180, 15, 26, 11, 10, 0, 1, [1, 1, 1, 0, 0, 1]>, <181, 16, 27, 11, 10, 0, 1, [1, 1, 1, 0, 0, 1]>, <182, 17, 28, 11, 10, 0, 1, [1, 1, 1, 0, 0, 1]>, <183, 18, 29, 11, 10, 0, 1, [1, 1, 1, 0, 0, 1]>, <184, 2, 12, 10, 11, 0, 1, [1, 1, 1, 0, 0, 1]>, <185, 3, 13, 10, 11, 0, 1, [1, 1, 1, 0, 0, 1]>, <186, 4, 14, 10, 11, 0, 1, [1, 1, 1, 0, 0, 1]>, <187, 5, 15, 10, 11, 0, 1, [1, 1, 1, 0, 0, 1]>, <188, 10, 20, 10, 11, 0, 1, [1, 1, 1, 0, 0, 1]>, <189, 11, 21, 10, 11, 0, 1, [1, 1, 1, 0, 0, 1]>, <190, 12, 22, 10, 11, 0, 1, [1, 1, 1, 0, 0, 1]>, <191, 14, 24, 10, 11, 0, 1, [1, 1, 1, 0, 0, 1]>, <192, 15, 25, 10, 11, 0, 1, [1, 1, 1, 0, 0, 1]>, <193, 16, 26, 10, 11, 0, 1, [1, 1, 1, 0, 0, 1]>, <194, 17, 27, 10, 11, 0, 1, [1, 1, 1, 0, 0, 1]>, <195, 18, 28, 10, 11, 0, 1, [1, 1, 1, 0, 0, 1]>, <196, 19, 29, 10, 11, 0, 1, [1, 1, 1, 0, 0, 1]>, <197, 1, 12, 11, 12, 1, 0, [0, 0, 1, 1, 1, 1]>, <198, 2, 13, 11, 12, 1, 0, [0, 0, 1, 1, 1, 1]>, <199, 3, 14, 11, 12, 1, 0, [0, 0, 1, 1, 1, 1]>, <200, 4, 15, 11, 12, 1, 0, [0, 0, 1, 1, 1, 1]>, <201, 5, 16, 11, 12, 1, 0, [0, 0, 1, 1, 1, 1]>, <202, 9, 20, 11, 12, 1, 0, [0, 0, 1, 1, 1, 1]>, <203, 10, 21, 11, 12, 1, 0, [0, 0, 1, 1, 1, 1]>, <204, 11, 22, 11, 12, 1, 0, [0, 0, 1, 1, 1, 1]>, <205, 12, 23, 11, 12, 1, 0, [0, 0, 1, 1, 1, 1]>, <206, 13, 24, 11, 12, 1, 0, [0, 0, 1, 1, 1, 1]>, <207, 14, 25, 11, 12, 1, 0, [0, 0, 1, 1, 1, 1]>, <208, 15, 26, 11, 12, 1, 0, [0, 0, 1, 1, 1, 1]>, <209, 16, 27, 11, 12, 1, 0, [0, 0, 1, 1, 1, 1]>, <210, 17, 28, 11, 12, 1, 0, [0, 0, 1, 1, 1, 1]>, <211, 18, 29, 11, 12, 1, 0, [0, 0, 1, 1, 1, 1]>, <212, 0, 14, 14, 13, 0, 0, [1, 1, 1, 0, 0, 1]>, <213, 1, 15, 14, 13, 0, 0, [1, 1, 1, 0, 0, 1]>, <214, 2, 16, 14, 13, 0, 0, [1, 1, 1, 0, 0, 1]>, <215, 3, 17, 14, 13, 0, 0, [1, 1, 1, 0, 0, 1]>, <216, 4, 18, 14, 13, 0, 0, [1, 1, 1, 0, 0, 1]>, <217, 5, 19, 14, 13, 0, 0, [1, 1, 1, 0, 0, 1]>, <218, 6, 20, 14, 13, 0, 0, [1, 1, 1, 0, 0, 1]>, <219, 7, 21, 14, 13, 0, 0, [1, 1, 1, 0, 0, 1]>, <220, 8, 22, 14, 13, 0, 0, [1, 1, 1, 0, 0, 1]>, <221, 9, 23, 14, 13, 0, 0, [1, 1, 1, 0, 0, 1]>, <222, 10, 24, 14, 13, 0, 0, [1, 1, 1, 0, 0, 1]>, <223, 11, 25, 14, 13, 0, 0, [1, 1, 1, 0, 0, 1]>, <224, 12, 26, 14, 13, 0, 0, [1, 1, 1, 0, 0, 1]>, <225, 13, 27, 14, 13, 0, 0, [1, 1, 1, 0, 0, 1]>, <226, 14, 28, 14, 13, 0, 0, [1, 1, 1, 0, 0, 1]>, <227, 15, 29, 14, 13, 0, 0, [1, 1, 1, 0, 0, 1]>, <228, 0, 12, 12, 14, 0, 0, [1, 1, 1, 0, 0, 1]>, <229, 1, 13, 12, 14, 0, 0, [1, 1, 1, 0, 0, 1]>, <230, 2, 14, 12, 14, 0, 0, [1, 1, 1, 0, 0, 1]>, <231, 3, 15, 12, 14, 0, 0, [1, 1, 1, 0, 0, 1]>, <232, 4, 16, 12, 14, 0, 0, [1, 1, 1, 0, 0, 1]>, <233, 5, 17, 12, 14, 0, 0, [1, 1, 1, 0, 0, 1]>, <234, 8, 20, 12, 14, 0, 0, [1, 1, 1, 0, 0, 1]>, <235, 9, 21, 12, 14, 0, 0, [1, 1, 1, 0, 0, 1]>, <236, 10, 22, 12, 14, 0, 0, [1, 1, 1, 0, 0, 1]>, <237, 11, 23, 12, 14, 0, 0, [1, 1, 1, 0, 0, 1]>, <238, 12, 24, 12, 14, 0, 0, [1, 1, 1, 0, 0, 1]>, <239, 13, 25, 12, 14, 0, 0, [1, 1, 1, 0, 0, 1]>, <240, 14, 26, 12, 14, 0, 0, [1, 1, 1, 0, 0, 1]>, <241, 15, 27, 12, 14, 0, 0, [1, 1, 1, 0, 0, 1]>, <242, 16, 28, 12, 14, 0, 0, [1, 1, 1, 0, 0, 1]>, <243, 17, 29, 12, 14, 0, 0, [1, 1, 1, 0, 0, 1]>};
